\* SchedulingProblem *\
Minimize
OBJ: x_1_100 + 2 x_1_101 + 1000000 x_1_102 + 1000000 x_1_103 + 2 x_1_104
 + 1000000 x_1_105 + 2 x_1_106 + x_1_107 + 2 x_1_108 + 2 x_2_100
 + 1000000 x_2_101 + 2 x_2_102 + 2 x_2_103 + x_2_104 + x_2_105 + x_2_106
 + 2 x_2_107 + x_2_108 + 1000000 x_3_100 + x_3_101 + x_3_102 + x_3_103
 + 1000000 x_3_104 + 2 x_3_105 + 1000000 x_3_106 + 1000000 x_3_107
 + 1000000 x_3_108
Subject To
_C1: x_1_100 + x_1_101 + x_1_102 + x_1_103 + x_1_104 + x_1_105 + x_1_106
 + x_1_107 + x_1_108 >= 2
_C10: x_2_100 + x_2_101 + x_2_102 + x_2_103 + x_2_104 + x_2_105 + x_2_106
 + x_2_107 + x_2_108 <= 4
_C11: x_2_100 + x_2_101 + x_2_102 + x_2_103 + x_2_104 + x_2_105 >= 0
_C12: x_2_106 + x_2_107 + x_2_108 >= 0
_C13: 4 x_2_100 - 7 x_2_101 + 0 x_2_102 - 10 x_2_103 + x_2_104 + 4 x_2_105
 - 5 x_2_106 - 3 x_2_107 - 7 x_2_108 <= 0
_C14: - 8 x_2_100 + 3 x_2_101 - 4 x_2_102 + 6 x_2_103 - 5 x_2_104 - 8 x_2_105
 + x_2_106 - x_2_107 + 3 x_2_108 <= 0
_C15: 3 x_2_100 - 8 x_2_101 - 3 x_2_102 - 11 x_2_103 + 3 x_2_104 - 7 x_2_105
 + 2 x_2_106 - 2 x_2_107 - 3 x_2_108 <= 0
_C16: - 7 x_2_100 + 4 x_2_101 - x_2_102 + 7 x_2_103 - 7 x_2_104 + 3 x_2_105
 - 6 x_2_106 - 2 x_2_107 - x_2_108 <= 0
_C17: x_3_100 + x_3_101 + x_3_102 + x_3_103 + x_3_104 + x_3_105 + x_3_106
 + x_3_107 + x_3_108 >= 2
_C18: x_3_100 + x_3_101 + x_3_102 + x_3_103 + x_3_104 + x_3_105 + x_3_106
 + x_3_107 + x_3_108 <= 4
_C19: x_3_100 + x_3_101 + x_3_102 + x_3_103 + x_3_104 + x_3_105 >= 0
_C2: x_1_100 + x_1_101 + x_1_102 + x_1_103 + x_1_104 + x_1_105 + x_1_106
 + x_1_107 + x_1_108 <= 4
_C20: x_3_106 + x_3_107 + x_3_108 >= 0
_C21: 4 x_3_100 - 7 x_3_101 + 0 x_3_102 - 10 x_3_103 + x_3_104 + 4 x_3_105
 - 5 x_3_106 - 3 x_3_107 - 7 x_3_108 <= 0
_C22: - 8 x_3_100 + 3 x_3_101 - 4 x_3_102 + 6 x_3_103 - 5 x_3_104 - 8 x_3_105
 + x_3_106 - x_3_107 + 3 x_3_108 <= 0
_C23: 3 x_3_100 - 8 x_3_101 - 3 x_3_102 - 11 x_3_103 + 3 x_3_104 - 7 x_3_105
 + 2 x_3_106 - 2 x_3_107 - 3 x_3_108 <= 0
_C24: - 7 x_3_100 + 4 x_3_101 - x_3_102 + 7 x_3_103 - 7 x_3_104 + 3 x_3_105
 - 6 x_3_106 - 2 x_3_107 - x_3_108 <= 0
_C25: x_1_100 + x_2_100 + x_3_100 = 1
_C26: x_1_101 + x_2_101 + x_3_101 = 1
_C27: x_1_102 + x_2_102 + x_3_102 = 1
_C28: x_1_103 + x_2_103 + x_3_103 = 1
_C29: x_1_104 + x_2_104 + x_3_104 = 1
_C3: x_1_100 + x_1_101 + x_1_102 + x_1_103 + x_1_104 + x_1_105 >= 0
_C30: x_1_105 + x_2_105 + x_3_105 = 1
_C31: x_1_106 + x_2_106 + x_3_106 = 1
_C32: x_1_107 + x_2_107 + x_3_107 = 1
_C33: x_1_108 + x_2_108 + x_3_108 = 1
_C4: x_1_106 + x_1_107 + x_1_108 >= 0
_C5: 4 x_1_100 - 7 x_1_101 + 0 x_1_102 - 10 x_1_103 + x_1_104 + 4 x_1_105
 - 5 x_1_106 - 3 x_1_107 - 7 x_1_108 <= 0
_C6: - 8 x_1_100 + 3 x_1_101 - 4 x_1_102 + 6 x_1_103 - 5 x_1_104 - 8 x_1_105
 + x_1_106 - x_1_107 + 3 x_1_108 <= 0
_C7: 3 x_1_100 - 8 x_1_101 - 3 x_1_102 - 11 x_1_103 + 3 x_1_104 - 7 x_1_105
 + 2 x_1_106 - 2 x_1_107 - 3 x_1_108 <= 0
_C8: - 7 x_1_100 + 4 x_1_101 - x_1_102 + 7 x_1_103 - 7 x_1_104 + 3 x_1_105
 - 6 x_1_106 - 2 x_1_107 - x_1_108 <= 0
_C9: x_2_100 + x_2_101 + x_2_102 + x_2_103 + x_2_104 + x_2_105 + x_2_106
 + x_2_107 + x_2_108 >= 2
Binaries
x_1_100
x_1_101
x_1_102
x_1_103
x_1_104
x_1_105
x_1_106
x_1_107
x_1_108
x_2_100
x_2_101
x_2_102
x_2_103
x_2_104
x_2_105
x_2_106
x_2_107
x_2_108
x_3_100
x_3_101
x_3_102
x_3_103
x_3_104
x_3_105
x_3_106
x_3_107
x_3_108
End
